2327.61
10 66 58 19 4 23 37 34 22 35 54 40 41 45 46 11 15 7 62 5 21 16 61 8 26 32 50 17 42 0 28 33 9 27 14 18 29 65 59 64 1 24 49 60 67 47 53 56 38 51 57 69 30 55 12 6 68 63 3 52 25 39 13 36 48 20 31 2 44 43 
